k = 30;
b = 15;
AtomicConstraints =  [|
5, 3|
	5, 4|
	5, 11|
	8, 4|
	8, 11|
	8, 12|
	8, 13|
	9, 6|
	9, 7|
	9, 14|
	9, 15|
	10, 6|
	10, 7|
	10, 15|
	25, 19|
	25, 26|
	23, 19|
	23, 26|
	20, 22|
	20, 16|
	30, 22|
	30, 16|
	30, 21|
	17, 22|
	17, 16|
	17, 21|
	29, 16|
	29, 21|
	18, 27|
	28, 1|
	28, 2|
	28, 3|
	28, 4|
	24, 1|
	24, 2|
	24, 3|
	24, 4|];
DisjunctiveConstraints =  [|6, 7, 6, 15|
	12, 13, 12, 11|
	13, 14, 13, 12|
	14, 15, 14, 13|
	15, 6, 15, 14|
	16, 21, 16, 22|
	19, 26, 19, 27|
	30, 17, 30, 20|
	17, 29, 17, 30|
	29, 18, 29, 17|];
SoftAtomicConstraints =  [|
2, 1|
3, 2|
4, 3|
8, 5|
7, 6|
9, 8|
10, 9|
12, 11|
13, 12|
14, 13|
15, 14|
6, 15|
21, 16|
29, 17|
25, 18|
26, 19|
30, 20|
27, 21|
16, 22|
28, 24|
23, 25|
19, 27|
18, 29|
17, 30|];
DirectSuccessors =  [9,
13];
